c In Weigthed Partial Max-SAT, the parameters line is 'p wcnf nbvar nbclauses top'
c Where p is the weight
c nbvar is the nu	mber of a variables appearing in the file (TYPEBITS +1)
c nbclauses is the exact number of clauses contained in the file
c see http://maxsat.ia.udl.cat/requirements/
p wcnf 11 214
1 1 0
1 -1 0
1 2 0
1 -2 0
1 3 0
1 -3 0
1 4 0
1 -4 0
1 5 0
1 -5 0
1 6 0
1 -6 0
1 7 0
1 -7 0
1 8 0
1 -8 0
1 9 0
1 -9 0
1 10 0
1 -10 0
1 11 0
1 -11 0
7077476589 -3 -4 -1 -2 -5 0
7077476589 3 -4 -1 -2 -5 0
7077476589 -3 4 -1 -2 -5 0
7077476589 3 4 -1 -2 -5 0
7077476589 -3 -4 1 -2 -5 0
7077476589 3 -4 1 -2 -5 0
7077476589 -3 4 1 -2 -5 0
7077476589 3 4 1 -2 -5 0
7077476589 -3 -4 -1 2 -5 0
7077476589 3 -4 -1 2 -5 0
7077476589 -3 4 -1 2 -5 0
7077476589 3 4 -1 2 -5 0
7077476589 -3 -4 1 2 -5 0
7077476589 3 -4 1 2 -5 0
7077476589 -3 4 1 2 -5 0
7077476589 3 4 1 2 -5 0
7077476589 -3 -4 -1 -2 5 0
7077476589 3 -4 -1 -2 5 0
7077476589 -3 4 -1 -2 5 0
7077476589 3 4 -1 -2 5 0
7077476589 -3 -4 1 -2 5 0
7077476589 3 -4 1 -2 5 0
7077476589 -3 4 1 -2 5 0
7077476589 3 4 1 -2 5 0
7077476589 -3 -4 -1 2 5 0
7077476589 3 -4 -1 2 5 0
7077476589 -3 4 -1 2 5 0
7077476589 3 4 -1 2 5 0
7077476589 -3 -4 1 2 5 0
7077476589 3 -4 1 2 5 0
7077476589 -3 4 1 2 5 0
7077476589 3 4 1 2 5 0
7077476589 -3 -4 -1 -2 -5 0
7077476589 3 -4 -1 -2 -5 0
7077476589 -3 4 -1 -2 -5 0
7077476589 3 4 -1 -2 -5 0
7077476589 -3 -4 1 -2 -5 0
7077476589 3 -4 1 -2 -5 0
7077476589 -3 4 1 -2 -5 0
7077476589 3 4 1 -2 -5 0
7077476589 -3 -4 -1 2 -5 0
7077476589 3 -4 -1 2 -5 0
7077476589 -3 4 -1 2 -5 0
7077476589 3 4 -1 2 -5 0
7077476589 -3 -4 1 2 -5 0
7077476589 3 -4 1 2 -5 0
7077476589 -3 4 1 2 -5 0
7077476589 3 4 1 2 -5 0
7077476589 -3 -4 -1 -2 5 0
7077476589 3 -4 -1 -2 5 0
7077476589 -3 4 -1 -2 5 0
7077476589 3 4 -1 -2 5 0
7077476589 -3 -4 1 -2 5 0
7077476589 3 -4 1 -2 5 0
7077476589 -3 4 1 -2 5 0
7077476589 3 4 1 -2 5 0
7077476589 -3 -4 -1 2 5 0
7077476589 3 -4 -1 2 5 0
7077476589 -3 4 -1 2 5 0
7077476589 3 4 -1 2 5 0
7077476589 -3 -4 1 2 5 0
7077476589 3 -4 1 2 5 0
7077476589 -3 4 1 2 5 0
7077476589 3 4 1 2 5 0
7077476589 -6 -7 -1 -2 -8 0
7077476589 6 -7 -1 -2 -8 0
7077476589 -6 7 -1 -2 -8 0
7077476589 6 7 -1 -2 -8 0
7077476589 -6 -7 1 -2 -8 0
7077476589 6 -7 1 -2 -8 0
7077476589 -6 7 1 -2 -8 0
7077476589 6 7 1 -2 -8 0
7077476589 -6 -7 -1 2 -8 0
7077476589 6 -7 -1 2 -8 0
7077476589 -6 7 -1 2 -8 0
7077476589 6 7 -1 2 -8 0
7077476589 -6 -7 1 2 -8 0
7077476589 6 -7 1 2 -8 0
7077476589 -6 7 1 2 -8 0
7077476589 6 7 1 2 -8 0
7077476589 -6 -7 -1 -2 8 0
7077476589 6 -7 -1 -2 8 0
7077476589 -6 7 -1 -2 8 0
7077476589 6 7 -1 -2 8 0
7077476589 -6 -7 1 -2 8 0
7077476589 6 -7 1 -2 8 0
7077476589 -6 7 1 -2 8 0
7077476589 6 7 1 -2 8 0
7077476589 -6 -7 -1 2 8 0
7077476589 6 -7 -1 2 8 0
7077476589 -6 7 -1 2 8 0
7077476589 6 7 -1 2 8 0
7077476589 -6 -7 1 2 8 0
7077476589 6 -7 1 2 8 0
7077476589 -6 7 1 2 8 0
7077476589 6 7 1 2 8 0
7077476589 -6 -7 -1 -2 -8 0
7077476589 6 -7 -1 -2 -8 0
7077476589 -6 7 -1 -2 -8 0
7077476589 6 7 -1 -2 -8 0
7077476589 -6 -7 1 -2 -8 0
7077476589 6 -7 1 -2 -8 0
7077476589 -6 7 1 -2 -8 0
7077476589 6 7 1 -2 -8 0
7077476589 -6 -7 -1 2 -8 0
7077476589 6 -7 -1 2 -8 0
7077476589 -6 7 -1 2 -8 0
7077476589 6 7 -1 2 -8 0
7077476589 -6 -7 1 2 -8 0
7077476589 6 -7 1 2 -8 0
7077476589 -6 7 1 2 -8 0
7077476589 6 7 1 2 -8 0
7077476589 -6 -7 -1 -2 8 0
7077476589 6 -7 -1 -2 8 0
7077476589 -6 7 -1 -2 8 0
7077476589 6 7 -1 -2 8 0
7077476589 -6 -7 1 -2 8 0
7077476589 6 -7 1 -2 8 0
7077476589 -6 7 1 -2 8 0
7077476589 6 7 1 -2 8 0
7077476589 -6 -7 -1 2 8 0
7077476589 6 -7 -1 2 8 0
7077476589 -6 7 -1 2 8 0
7077476589 6 7 -1 2 8 0
7077476589 -6 -7 1 2 8 0
7077476589 6 -7 1 2 8 0
7077476589 -6 7 1 2 8 0
7077476589 6 7 1 2 8 0
77476589 -10 -9 -1 -2 -11 0
77476589 10 -9 -1 -2 -11 0
77476589 -10 9 -1 -2 -11 0
77476589 10 9 -1 -2 -11 0
77476589 -10 -9 1 -2 -11 0
77476589 10 -9 1 -2 -11 0
77476589 -10 9 1 -2 -11 0
77476589 10 9 1 -2 -11 0
8077476589 -10 -9 -1 2 -11 0
8077476589 10 -9 -1 2 -11 0
8077476589 -10 9 -1 2 -11 0
8077476589 10 9 -1 2 -11 0
8077476589 -10 -9 1 2 -11 0
8077476589 10 -9 1 2 -11 0
8077476589 -10 9 1 2 -11 0
8077476589 10 9 1 2 -11 0
8077476589 -10 -9 -1 -2 11 0
8077476589 10 -9 -1 -2 11 0
8077476589 -10 9 -1 -2 11 0
8077476589 10 9 -1 -2 11 0
8077476589 -10 -9 1 -2 11 0
8077476589 10 -9 1 -2 11 0
8077476589 -10 9 1 -2 11 0
8077476589 10 9 1 -2 11 0
8077476589 -10 -9 -1 2 11 0
8077476589 10 -9 -1 2 11 0
8077476589 -10 9 -1 2 11 0
8077476589 10 9 -1 2 11 0
8077476589 -10 -9 1 2 11 0
8077476589 10 -9 1 2 11 0
8077476589 -10 9 1 2 11 0
8077476589 10 9 1 2 11 0
8077476589 -10 -9 -1 -2 -11 0
8077476589 10 -9 -1 -2 -11 0
8077476589 -10 9 -1 -2 -11 0
8077476589 10 9 -1 -2 -11 0
8077476589 -10 -9 1 -2 -11 0
8077476589 10 -9 1 -2 -11 0
8077476589 -10 9 1 -2 -11 0
8077476589 10 9 1 -2 -11 0
8077476589 -10 -9 -1 2 -11 0
8077476589 10 -9 -1 2 -11 0
8077476589 -10 9 -1 2 -11 0
8077476589 10 9 -1 2 -11 0
8077476589 -10 -9 1 2 -11 0
8077476589 10 -9 1 2 -11 0
8077476589 -10 9 1 2 -11 0
8077476589 10 9 1 2 -11 0
8077476589 -10 -9 -1 -2 11 0
8077476589 10 -9 -1 -2 11 0
8077476589 -10 9 -1 -2 11 0
8077476589 10 9 -1 -2 11 0
8077476589 -10 -9 1 -2 11 0
8077476589 10 -9 1 -2 11 0
8077476589 -10 9 1 -2 11 0
8077476589 10 9 1 -2 11 0
8077476589 -10 -9 -1 2 11 0
8077476589 10 -9 -1 2 11 0
8077476589 -10 9 -1 2 11 0
8077476589 10 9 -1 2 11 0
8077476589 -10 -9 1 2 11 0
8077476589 10 -9 1 2 11 0
8077476589 -10 9 1 2 11 0
8077476589 10 9 1 2 11 0
